min: Z+1.0000000000;
x0 + x1 + x2 + x3 = 1;
Z+1.0000000000  - 1.0000000000 x0 - 2.0000000000 x1 - 3.0000000000 x2 - 4.0000000000 x3 >= 0;
Z+1.0000000000  - 5.0000000000 x0 - 6.0000000000 x1 - 7.0000000000 x2 - 8.0000000000 x3 >= 0;
